(set-info :smt-lib-version 2.6)
(set-info :category "crafted")
(set-logic QF_FFA)
(define-sort FF0 () (_ FiniteField 52435875175126190479447740508185965837690552500527637822603658699938581184513))
(declare-fun return_n6_alt () FF0)
(declare-fun x5_n0_alt () FF0)
(declare-fun mul_n10_alt () FF0)
(declare-fun x4_n1_alt () FF0)
(declare-fun mul_n9_alt () FF0)
(declare-fun mul_n8_alt () FF0)
(declare-fun x2_n5_alt () FF0)
(declare-fun mul_n7_alt () FF0)
(declare-fun x1_n2_alt () FF0)
(declare-fun x0_n4_alt () FF0)
(declare-fun return_n6 () FF0)
(declare-fun x5_n0 () FF0)
(declare-fun mul_n10 () FF0)
(declare-fun x4_n1 () FF0)
(declare-fun mul_n9 () FF0)
(declare-fun mul_n8 () FF0)
(declare-fun x2_n5 () FF0)
(declare-fun mul_n7 () FF0)
(declare-fun x1_n2 () FF0)
(declare-fun x0_n4 () FF0)
(declare-fun x3_n3_alt () FF0)
(declare-fun x3_n3 () FF0)
(assert 
  (let ((let0 return_n6_alt))
  (let ((let1 x5_n0_alt))
  (let ((let2 mul_n10_alt))
  (let ((let3 (ff.mul let2 let1)))
  (let ((let4 (= let3 let0)))
  (let ((let5 x4_n1_alt))
  (let ((let6 mul_n9_alt))
  (let ((let7 (ff.mul let6 let5)))
  (let ((let8 (= let7 let2)))
  (let ((let9 mul_n8_alt))
  (let ((let10 x2_n5_alt))
  (let ((let11 mul_n7_alt))
  (let ((let12 (ff.mul let11 let10)))
  (let ((let13 (= let12 let9)))
  (let ((let14 x1_n2_alt))
  (let ((let15 x0_n4_alt))
  (let ((let16 (ff.mul let15 let14)))
  (let ((let17 (= let16 let11)))
  (let ((let18 (and let17 let13 let8 let4)))
  (let ((let19 return_n6))
  (let ((let20 x5_n0))
  (let ((let21 mul_n10))
  (let ((let22 (ff.mul let21 let20)))
  (let ((let23 (= let22 let19)))
  (let ((let24 x4_n1))
  (let ((let25 mul_n9))
  (let ((let26 (ff.mul let25 let24)))
  (let ((let27 (= let26 let21)))
  (let ((let28 mul_n8))
  (let ((let29 x2_n5))
  (let ((let30 mul_n7))
  (let ((let31 (ff.mul let30 let29)))
  (let ((let32 (= let31 let28)))
  (let ((let33 x1_n2))
  (let ((let34 x0_n4))
  (let ((let35 (ff.mul let34 let33)))
  (let ((let36 (= let35 let30)))
  (let ((let37 (and let36 let32 let27 let23)))
  (let ((let38 (= let19 let0)))
  (let ((let39 (not let38)))
  (let ((let40 (= let24 let5)))
  (let ((let41 (= let34 let15)))
  (let ((let42 (= let29 let10)))
  (let ((let43 (= let20 let1)))
  (let ((let44 x3_n3_alt))
  (let ((let45 x3_n3))
  (let ((let46 (= let45 let44)))
  (let ((let47 (= let33 let14)))
  (let ((let48 (and let47 let46 let43 let42 let41 let40)))
  (let ((let49 (and let48 let39 let37 let18)))
  let49
))))))))))))))))))))))))))))))))))))))))))))))))))
)
(check-sat)
